GLPSOL--GLPK LP/MIP Solver 5.0
Parameter(s) specified in the command line:
 --cpxlp --first inputs/new_no_tr/order/triang7_0_up_right_input.lp -o solutions/new_no_tr/triang7_0_up_right_input.lp
Reading problem data from 'inputs/new_no_tr/order/triang7_0_up_right_input.lp'...
inputs/new_no_tr/order/triang7_0_up_right_input.lp:4167: warning: lower bound of variable 'm_27_27' redefined
inputs/new_no_tr/order/triang7_0_up_right_input.lp:4167: warning: upper bound of variable 'm_27_27' redefined
3991 rows, 1597 columns, 11607 non-zeros
1597 integer variables, 1428 of which are binary
5735 lines were read
GLPK Integer Optimizer 5.0
3991 rows, 1597 columns, 11607 non-zeros
1597 integer variables, 1428 of which are binary
Preprocessing...
42 hidden packing inequaliti(es) were detected
84 hidden covering inequaliti(es) were detected
672 constraint coefficient(s) were reduced
3559 rows, 1342 columns, 10123 non-zeros
1342 integer variables, 1313 of which are binary
Scaling...
 A: min|aij| =  1.000e+00  max|aij| =  9.900e+01  ratio =  9.900e+01
GM: min|aij| =  4.347e-01  max|aij| =  2.300e+00  ratio =  5.292e+00
EQ: min|aij| =  1.890e-01  max|aij| =  1.000e+00  ratio =  5.292e+00
2N: min|aij| =  1.250e-01  max|aij| =  1.438e+00  ratio =  1.150e+01
Constructing initial basis...
Size of triangular part is 3223
Solving LP relaxation...
GLPK Simplex Optimizer 5.0
3559 rows, 1342 columns, 10123 non-zeros
      0: obj =   2.320000000e+02 inf =   3.070e+02 (161)
Perturbing LP to avoid stalling [199]...
    702: obj =   4.170608445e+02 inf =   4.225e-08 (0) 6
Removing LP perturbation [1466]...
*  1466: obj =   2.532308952e+02 inf =   5.683e-15 (0) 7
OPTIMAL LP SOLUTION FOUND
Integer optimization begins...
Long-step dual simplex will be used
+  1466: mip =     not found yet >=              -inf        (1; 0)
+ 22098: mip =     not found yet >=   2.680000000e+02        (23; 40)
+ 47675: mip =     not found yet >=   2.730000000e+02        (124; 101)
+ 71809: mip =     not found yet >=   2.740000000e+02        (310; 138)
+ 96520: mip =     not found yet >=   2.740000000e+02        (466; 210)
+120723: mip =     not found yet >=   2.740000000e+02        (513; 349)
+148828: mip =     not found yet >=   2.750000000e+02        (647; 393)
+176675: mip =     not found yet >=   2.750000000e+02        (824; 433)
+203322: mip =     not found yet >=   2.750000000e+02        (1021; 468)
+229652: mip =     not found yet >=   2.750000000e+02        (1143; 510)
+255960: mip =     not found yet >=   2.750000000e+02        (1286; 550)
+282020: mip =     not found yet >=   2.750000000e+02        (1340; 598)
Time used: 60.1 secs.  Memory used: 12.1 Mb.
+308059: mip =     not found yet >=   2.760000000e+02        (1527; 642)
+338175: mip =     not found yet >=   2.760000000e+02        (1749; 697)
+366296: mip =     not found yet >=   2.760000000e+02        (1887; 754)
+393375: mip =     not found yet >=   2.760000000e+02        (1994; 805)
+420760: mip =     not found yet >=   2.760000000e+02        (2185; 839)
+448717: mip =     not found yet >=   2.760000000e+02        (2302; 903)
+476974: mip =     not found yet >=   2.760000000e+02        (2421; 951)
+504318: mip =     not found yet >=   2.760000000e+02        (2548; 981)
+530481: mip =     not found yet >=   2.770000000e+02        (2611; 1045)
+558139: mip =     not found yet >=   2.770000000e+02        (2661; 1147)
+585192: mip =     not found yet >=   2.770000000e+02        (2732; 1224)
+612353: mip =     not found yet >=   2.770000000e+02        (2839; 1302)
Time used: 120.1 secs.  Memory used: 19.9 Mb.
+638867: mip =     not found yet >=   2.770000000e+02        (2895; 1395)
+664639: mip =     not found yet >=   2.780000000e+02        (2960; 1471)
+664891: >>>>>   4.320000000e+02 >=   2.780000000e+02  35.6% (2972; 1471)
+670110: >>>>>   3.620000000e+02 >=   2.780000000e+02  23.2% (2960; 1556)
+697599: mip =   3.620000000e+02 >=   2.780000000e+02  23.2% (2742; 2173)
+724369: mip =   3.620000000e+02 >=   2.780000000e+02  23.2% (2819; 2225)
+750365: mip =   3.620000000e+02 >=   2.780000000e+02  23.2% (2894; 2363)
+774243: mip =   3.620000000e+02 >=   2.790000000e+02  22.9% (2929; 2462)
+800102: mip =   3.620000000e+02 >=   2.790000000e+02  22.9% (2924; 2624)
+823800: mip =   3.620000000e+02 >=   2.790000000e+02  22.9% (2968; 2671)
+848573: mip =   3.620000000e+02 >=   2.800000000e+02  22.7% (2965; 2852)
+874360: mip =   3.620000000e+02 >=   2.800000000e+02  22.7% (3007; 2938)
+901069: mip =   3.620000000e+02 >=   2.800000000e+02  22.7% (3087; 3014)
+927139: mip =   3.620000000e+02 >=   2.800000000e+02  22.7% (3176; 3104)
Time used: 180.1 secs.  Memory used: 25.2 Mb.
+952593: mip =   3.620000000e+02 >=   2.810000000e+02  22.4% (3168; 3221)
+977142: mip =   3.620000000e+02 >=   2.810000000e+02  22.4% (3198; 3355)
+1002646: mip =   3.620000000e+02 >=   2.820000000e+02  22.1% (3242; 3420)
+1028977: mip =   3.620000000e+02 >=   2.820000000e+02  22.1% (3315; 3467)
+1054502: mip =   3.620000000e+02 >=   2.820000000e+02  22.1% (3362; 3579)
+1075836: mip =   3.620000000e+02 >=   2.820000000e+02  22.1% (3414; 3634)
+1099178: mip =   3.620000000e+02 >=   2.830000000e+02  21.8% (3454; 3696)
+1124665: mip =   3.620000000e+02 >=   2.830000000e+02  21.8% (3448; 3760)
+1150186: mip =   3.620000000e+02 >=   2.830000000e+02  21.8% (3458; 3884)
+1174742: mip =   3.620000000e+02 >=   2.830000000e+02  21.8% (3530; 3935)
+1200915: mip =   3.620000000e+02 >=   2.830000000e+02  21.8% (3597; 3980)
+1223247: mip =   3.620000000e+02 >=   2.830000000e+02  21.8% (3535; 4235)
Time used: 240.2 secs.  Memory used: 31.3 Mb.
+1246092: mip =   3.620000000e+02 >=   2.840000000e+02  21.5% (3532; 4355)
+1271592: mip =   3.620000000e+02 >=   2.850000000e+02  21.3% (3556; 4442)
+1297785: mip =   3.620000000e+02 >=   2.850000000e+02  21.3% (3629; 4539)
+1323248: mip =   3.620000000e+02 >=   2.850000000e+02  21.3% (3681; 4628)
+1347036: mip =   3.620000000e+02 >=   2.850000000e+02  21.3% (3681; 4680)
+1371545: mip =   3.620000000e+02 >=   2.860000000e+02  21.0% (3706; 4790)
+1398270: mip =   3.620000000e+02 >=   2.870000000e+02  20.7% (3728; 4950)
+1424728: mip =   3.620000000e+02 >=   2.870000000e+02  20.7% (3787; 4999)
+1449164: mip =   3.620000000e+02 >=   2.890000000e+02  20.2% (3677; 5347)
+1473149: mip =   3.620000000e+02 >=   2.890000000e+02  20.2% (3652; 5563)
+1496661: mip =   3.620000000e+02 >=   2.900000000e+02  19.9% (3662; 5778)
+1523107: mip =   3.620000000e+02 >=   2.900000000e+02  19.9% (3678; 5965)
Time used: 300.5 secs.  Memory used: 35.0 Mb.
+1549482: mip =   3.620000000e+02 >=   2.900000000e+02  19.9% (3685; 6147)
+1574459: mip =   3.620000000e+02 >=   2.900000000e+02  19.9% (3671; 6309)
+1598718: mip =   3.620000000e+02 >=   2.900000000e+02  19.9% (3705; 6351)
+1622282: mip =   3.620000000e+02 >=   2.900000000e+02  19.9% (3740; 6447)
+1646317: mip =   3.620000000e+02 >=   2.900000000e+02  19.9% (3782; 6555)
+1672640: mip =   3.620000000e+02 >=   2.910000000e+02  19.6% (3765; 6677)
+1696908: mip =   3.620000000e+02 >=   2.910000000e+02  19.6% (3726; 6906)
+1721567: mip =   3.620000000e+02 >=   2.910000000e+02  19.6% (3757; 7024)
+1747891: mip =   3.620000000e+02 >=   2.910000000e+02  19.6% (3785; 7140)
+1771612: mip =   3.620000000e+02 >=   2.910000000e+02  19.6% (3814; 7178)
+1794665: mip =   3.620000000e+02 >=   2.910000000e+02  19.6% (3865; 7222)
Time used: 360.5 secs.  Memory used: 39.3 Mb.
+1816892: mip =   3.620000000e+02 >=   2.910000000e+02  19.6% (3872; 7263)
+1842499: mip =   3.620000000e+02 >=   2.910000000e+02  19.6% (3905; 7302)
+1867926: mip =   3.620000000e+02 >=   2.920000000e+02  19.3% (3957; 7392)
+1893047: mip =   3.620000000e+02 >=   2.920000000e+02  19.3% (3967; 7522)
+1919131: mip =   3.620000000e+02 >=   2.920000000e+02  19.3% (4007; 7645)
+1945129: mip =   3.620000000e+02 >=   2.920000000e+02  19.3% (4012; 7895)
+1969239: mip =   3.620000000e+02 >=   2.930000000e+02  19.1% (3990; 8143)
+1994322: mip =   3.620000000e+02 >=   2.930000000e+02  19.1% (3969; 8334)
+2021360: mip =   3.620000000e+02 >=   2.930000000e+02  19.1% (4083; 8467)
+2046352: mip =   3.620000000e+02 >=   2.930000000e+02  19.1% (4066; 8801)
+2070932: mip =   3.620000000e+02 >=   2.940000000e+02  18.8% (4030; 9013)
+2097725: mip =   3.620000000e+02 >=   2.940000000e+02  18.8% (4051; 9155)
Time used: 420.5 secs.  Memory used: 44.1 Mb.
+2123145: mip =   3.620000000e+02 >=   2.940000000e+02  18.8% (4067; 9359)
+2148143: mip =   3.620000000e+02 >=   2.940000000e+02  18.8% (4153; 9497)
+2172797: mip =   3.620000000e+02 >=   2.940000000e+02  18.8% (4132; 9638)
+2197113: mip =   3.620000000e+02 >=   2.940000000e+02  18.8% (4161; 9677)
+2222734: mip =   3.620000000e+02 >=   2.950000000e+02  18.5% (4173; 9797)
+2248821: mip =   3.620000000e+02 >=   2.950000000e+02  18.5% (4163; 9999)
+2274048: mip =   3.620000000e+02 >=   2.950000000e+02  18.5% (4158; 10230)
+2299594: mip =   3.620000000e+02 >=   2.950000000e+02  18.5% (4188; 10325)
+2324285: mip =   3.620000000e+02 >=   2.960000000e+02  18.2% (4020; 10967)
+2349959: mip =   3.620000000e+02 >=   2.960000000e+02  18.2% (3980; 11138)
+2375180: mip =   3.620000000e+02 >=   2.960000000e+02  18.2% (4004; 11194)
+2399781: mip =   3.620000000e+02 >=   2.970000000e+02  18.0% (4023; 11310)
Time used: 480.5 secs.  Memory used: 47.7 Mb.
+2425965: mip =   3.620000000e+02 >=   2.970000000e+02  18.0% (3994; 11533)
+2451609: mip =   3.620000000e+02 >=   2.970000000e+02  18.0% (3997; 11607)
+2477391: mip =   3.620000000e+02 >=   2.980000000e+02  17.7% (3969; 11876)
+2504520: mip =   3.620000000e+02 >=   2.980000000e+02  17.7% (3984; 12123)
+2530781: mip =   3.620000000e+02 >=   2.980000000e+02  17.7% (4023; 12401)
+2556887: mip =   3.620000000e+02 >=   2.980000000e+02  17.7% (4050; 12520)
+2582227: mip =   3.620000000e+02 >=   2.980000000e+02  17.7% (4062; 12678)
+2607906: mip =   3.620000000e+02 >=   2.980000000e+02  17.7% (4116; 12755)
+2632788: mip =   3.620000000e+02 >=   2.980000000e+02  17.7% (4135; 12865)
+2657398: mip =   3.620000000e+02 >=   2.980000000e+02  17.7% (4118; 13069)
+2681912: mip =   3.620000000e+02 >=   2.980000000e+02  17.7% (4103; 13231)
+2707716: mip =   3.620000000e+02 >=   2.990000000e+02  17.4% (4136; 13639)
Time used: 540.5 secs.  Memory used: 50.6 Mb.
+2733770: mip =   3.620000000e+02 >=   2.990000000e+02  17.4% (4161; 13997)
+2759848: mip =   3.620000000e+02 >=   2.990000000e+02  17.4% (4172; 14269)
+2785265: mip =   3.620000000e+02 >=   2.990000000e+02  17.4% (4195; 14574)
+2810804: mip =   3.620000000e+02 >=   2.990000000e+02  17.4% (4161; 14943)
+2836956: mip =   3.620000000e+02 >=   2.990000000e+02  17.4% (4218; 15129)
+2864090: mip =   3.620000000e+02 >=   2.990000000e+02  17.4% (4296; 15254)
+2892492: mip =   3.620000000e+02 >=   2.990000000e+02  17.4% (4432; 15404)
+2920756: mip =   3.620000000e+02 >=   2.990000000e+02  17.4% (4583; 15547)
+2948603: mip =   3.620000000e+02 >=   2.990000000e+02  17.4% (4727; 15641)
+2978729: mip =   3.620000000e+02 >=   2.990000000e+02  17.4% (4876; 15753)
+3007881: mip =   3.620000000e+02 >=   2.990000000e+02  17.4% (5019; 15821)
+3037002: mip =   3.620000000e+02 >=   2.990000000e+02  17.4% (5160; 15880)
Time used: 600.7 secs.  Memory used: 57.2 Mb.
+3065533: mip =   3.620000000e+02 >=   2.990000000e+02  17.4% (5352; 15961)
+3093754: mip =   3.620000000e+02 >=   2.990000000e+02  17.4% (5489; 16032)
+3121755: mip =   3.620000000e+02 >=   2.990000000e+02  17.4% (5635; 16129)
+3151706: mip =   3.620000000e+02 >=   2.990000000e+02  17.4% (5797; 16203)
+3180065: mip =   3.620000000e+02 >=   2.990000000e+02  17.4% (5962; 16293)
+3209374: mip =   3.620000000e+02 >=   2.990000000e+02  17.4% (6164; 16339)
+3239279: mip =   3.620000000e+02 >=   2.990000000e+02  17.4% (6338; 16404)
+3268098: mip =   3.620000000e+02 >=   2.990000000e+02  17.4% (6514; 16461)
+3295072: mip =   3.620000000e+02 >=   2.990000000e+02  17.4% (6643; 16540)
+3321218: mip =   3.620000000e+02 >=   2.990000000e+02  17.4% (6776; 16593)
+3348879: mip =   3.620000000e+02 >=   2.990000000e+02  17.4% (6903; 16672)
+3374477: mip =   3.620000000e+02 >=   2.990000000e+02  17.4% (6963; 16731)
Time used: 660.8 secs.  Memory used: 65.9 Mb.
+3399441: mip =   3.620000000e+02 >=   3.000000000e+02  17.1% (7028; 16852)
+3426345: mip =   3.620000000e+02 >=   3.000000000e+02  17.1% (7278; 16962)
+3453687: mip =   3.620000000e+02 >=   3.000000000e+02  17.1% (7501; 17022)
+3481726: mip =   3.620000000e+02 >=   3.000000000e+02  17.1% (7682; 17075)
+3509312: mip =   3.620000000e+02 >=   3.000000000e+02  17.1% (7907; 17131)
+3536969: mip =   3.620000000e+02 >=   3.000000000e+02  17.1% (8157; 17186)
+3564055: mip =   3.620000000e+02 >=   3.000000000e+02  17.1% (8394; 17238)
+3592279: mip =   3.620000000e+02 >=   3.000000000e+02  17.1% (8583; 17301)
+3618987: mip =   3.620000000e+02 >=   3.000000000e+02  17.1% (8756; 17364)
+3642891: mip =   3.620000000e+02 >=   3.000000000e+02  17.1% (8822; 17446)
+3669521: mip =   3.620000000e+02 >=   3.010000000e+02  16.9% (8850; 17524)
+3699032: mip =   3.620000000e+02 >=   3.010000000e+02  16.9% (8904; 17659)
Time used: 720.8 secs.  Memory used: 75.4 Mb.
+3726178: mip =   3.620000000e+02 >=   3.010000000e+02  16.9% (8939; 17803)
+3754638: mip =   3.620000000e+02 >=   3.010000000e+02  16.9% (8979; 17933)
+3782340: mip =   3.620000000e+02 >=   3.010000000e+02  16.9% (9034; 18063)
+3810194: mip =   3.620000000e+02 >=   3.010000000e+02  16.9% (9083; 18170)
+3838401: mip =   3.620000000e+02 >=   3.010000000e+02  16.9% (9143; 18298)
+3867306: mip =   3.620000000e+02 >=   3.010000000e+02  16.9% (9184; 18432)
+3895496: mip =   3.620000000e+02 >=   3.010000000e+02  16.9% (9236; 18569)
+3923768: mip =   3.620000000e+02 >=   3.010000000e+02  16.9% (9304; 18674)
+3951606: mip =   3.620000000e+02 >=   3.010000000e+02  16.9% (9339; 18834)
+3979327: mip =   3.620000000e+02 >=   3.010000000e+02  16.9% (9384; 18988)
+4008791: mip =   3.620000000e+02 >=   3.010000000e+02  16.9% (9444; 19084)
+4037494: mip =   3.620000000e+02 >=   3.010000000e+02  16.9% (9506; 19195)
Time used: 780.8 secs.  Memory used: 82.9 Mb.
+4065369: mip =   3.620000000e+02 >=   3.010000000e+02  16.9% (9529; 19334)
+4094479: mip =   3.620000000e+02 >=   3.010000000e+02  16.9% (9615; 19439)
+4121656: mip =   3.620000000e+02 >=   3.010000000e+02  16.9% (9666; 19579)
+4149569: mip =   3.620000000e+02 >=   3.010000000e+02  16.9% (9734; 19713)
+4177683: mip =   3.620000000e+02 >=   3.010000000e+02  16.9% (9813; 19818)
+4206027: mip =   3.620000000e+02 >=   3.010000000e+02  16.9% (9866; 19930)
+4233755: mip =   3.620000000e+02 >=   3.010000000e+02  16.9% (9939; 20066)
+4262102: mip =   3.620000000e+02 >=   3.010000000e+02  16.9% (10022; 20180)
+4290187: mip =   3.620000000e+02 >=   3.010000000e+02  16.9% (10130; 20291)
+4319147: mip =   3.620000000e+02 >=   3.010000000e+02  16.9% (10182; 20401)
+4346290: mip =   3.620000000e+02 >=   3.010000000e+02  16.9% (10218; 20539)
+4375146: mip =   3.620000000e+02 >=   3.010000000e+02  16.9% (10287; 20668)
Time used: 840.9 secs.  Memory used: 91.9 Mb.
+4403498: mip =   3.620000000e+02 >=   3.010000000e+02  16.9% (10365; 20783)
+4432305: mip =   3.620000000e+02 >=   3.010000000e+02  16.9% (10420; 20908)
+4460571: mip =   3.620000000e+02 >=   3.010000000e+02  16.9% (10494; 21017)
+4489130: mip =   3.620000000e+02 >=   3.010000000e+02  16.9% (10554; 21149)
+4517987: mip =   3.620000000e+02 >=   3.010000000e+02  16.9% (10638; 21257)
+4546215: mip =   3.620000000e+02 >=   3.010000000e+02  16.9% (10684; 21358)
+4574055: mip =   3.620000000e+02 >=   3.010000000e+02  16.9% (10752; 21464)
+4602872: mip =   3.620000000e+02 >=   3.010000000e+02  16.9% (10821; 21559)
+4629747: mip =   3.620000000e+02 >=   3.010000000e+02  16.9% (10908; 21694)
+4657892: mip =   3.620000000e+02 >=   3.010000000e+02  16.9% (10996; 21785)
+4686079: mip =   3.620000000e+02 >=   3.010000000e+02  16.9% (11055; 21890)
Time used: 900.9 secs.  Memory used: 101.4 Mb.
+4714130: mip =   3.620000000e+02 >=   3.010000000e+02  16.9% (11143; 22009)
+4742267: mip =   3.620000000e+02 >=   3.010000000e+02  16.9% (11241; 22114)
+4770488: mip =   3.620000000e+02 >=   3.010000000e+02  16.9% (11310; 22211)
+4800692: mip =   3.620000000e+02 >=   3.010000000e+02  16.9% (11400; 22276)
+4828572: mip =   3.620000000e+02 >=   3.010000000e+02  16.9% (11470; 22358)
+4856297: mip =   3.620000000e+02 >=   3.010000000e+02  16.9% (11539; 22464)
+4884623: mip =   3.620000000e+02 >=   3.010000000e+02  16.9% (11592; 22564)
+4912599: mip =   3.620000000e+02 >=   3.010000000e+02  16.9% (11659; 22681)
+4940686: mip =   3.620000000e+02 >=   3.010000000e+02  16.9% (11746; 22803)
+4969181: mip =   3.620000000e+02 >=   3.010000000e+02  16.9% (11817; 22897)
+4997459: mip =   3.620000000e+02 >=   3.010000000e+02  16.9% (11882; 23004)
+5025558: mip =   3.620000000e+02 >=   3.010000000e+02  16.9% (11979; 23116)
Time used: 960.9 secs.  Memory used: 111.9 Mb.
+5053571: mip =   3.620000000e+02 >=   3.010000000e+02  16.9% (12083; 23219)
+5080444: mip =   3.620000000e+02 >=   3.010000000e+02  16.9% (12138; 23353)
+5108161: mip =   3.620000000e+02 >=   3.010000000e+02  16.9% (12205; 23468)
+5136054: mip =   3.620000000e+02 >=   3.010000000e+02  16.9% (12282; 23558)
+5163781: mip =   3.620000000e+02 >=   3.010000000e+02  16.9% (12337; 23651)
+5191845: mip =   3.620000000e+02 >=   3.010000000e+02  16.9% (12400; 23754)
+5219123: mip =   3.620000000e+02 >=   3.010000000e+02  16.9% (12469; 23862)
+5246003: mip =   3.620000000e+02 >=   3.010000000e+02  16.9% (12571; 24008)
+5274301: mip =   3.620000000e+02 >=   3.010000000e+02  16.9% (12625; 24084)
+5301141: mip =   3.620000000e+02 >=   3.010000000e+02  16.9% (12694; 24210)
+5328736: mip =   3.620000000e+02 >=   3.010000000e+02  16.9% (12823; 24305)
+5356807: mip =   3.620000000e+02 >=   3.010000000e+02  16.9% (12865; 24417)
Time used: 1020.9 secs.  Memory used: 123.0 Mb.
+5383653: mip =   3.620000000e+02 >=   3.010000000e+02  16.9% (12945; 24516)
+5410693: mip =   3.620000000e+02 >=   3.010000000e+02  16.9% (13003; 24646)
+5438938: mip =   3.620000000e+02 >=   3.010000000e+02  16.9% (13066; 24758)
+5466044: mip =   3.620000000e+02 >=   3.010000000e+02  16.9% (13120; 24881)
+5496530: mip =   3.620000000e+02 >=   3.010000000e+02  16.9% (13233; 24969)
+5523852: mip =   3.620000000e+02 >=   3.010000000e+02  16.9% (13296; 25132)
+5551830: mip =   3.620000000e+02 >=   3.010000000e+02  16.9% (13343; 25250)
+5579736: mip =   3.620000000e+02 >=   3.010000000e+02  16.9% (13418; 25385)
+5607477: mip =   3.620000000e+02 >=   3.010000000e+02  16.9% (13496; 25492)
+5636834: mip =   3.620000000e+02 >=   3.010000000e+02  16.9% (13610; 25550)
+5666134: mip =   3.620000000e+02 >=   3.010000000e+02  16.9% (13692; 25654)
+5692696: mip =   3.620000000e+02 >=   3.010000000e+02  16.9% (13779; 25804)
Time used: 1081.1 secs.  Memory used: 135.4 Mb.
+5720694: mip =   3.620000000e+02 >=   3.010000000e+02  16.9% (13851; 25906)
+5747959: mip =   3.620000000e+02 >=   3.010000000e+02  16.9% (13924; 26008)
+5776443: mip =   3.620000000e+02 >=   3.010000000e+02  16.9% (14013; 26094)
+5804244: mip =   3.620000000e+02 >=   3.010000000e+02  16.9% (14129; 26204)
+5831965: mip =   3.620000000e+02 >=   3.010000000e+02  16.9% (14216; 26340)
+5860639: mip =   3.620000000e+02 >=   3.010000000e+02  16.9% (14293; 26442)
+5888789: mip =   3.620000000e+02 >=   3.010000000e+02  16.9% (14384; 26574)
+5918231: mip =   3.620000000e+02 >=   3.010000000e+02  16.9% (14471; 26665)
+5945422: mip =   3.620000000e+02 >=   3.010000000e+02  16.9% (14556; 26781)
+5973932: mip =   3.620000000e+02 >=   3.010000000e+02  16.9% (14622; 26892)
+6001875: mip =   3.620000000e+02 >=   3.010000000e+02  16.9% (14686; 27002)
+6030781: mip =   3.620000000e+02 >=   3.010000000e+02  16.9% (14769; 27085)
Time used: 1141.1 secs.  Memory used: 147.7 Mb.
+6059123: mip =   3.620000000e+02 >=   3.010000000e+02  16.9% (14839; 27175)
+6087105: mip =   3.620000000e+02 >=   3.010000000e+02  16.9% (14909; 27302)
+6116123: mip =   3.620000000e+02 >=   3.010000000e+02  16.9% (15038; 27410)
+6144186: mip =   3.620000000e+02 >=   3.010000000e+02  16.9% (15092; 27546)
+6171342: mip =   3.620000000e+02 >=   3.010000000e+02  16.9% (15196; 27668)
+6198883: mip =   3.620000000e+02 >=   3.010000000e+02  16.9% (15270; 27777)
+6227192: mip =   3.620000000e+02 >=   3.010000000e+02  16.9% (15340; 27858)
+6253749: mip =   3.620000000e+02 >=   3.010000000e+02  16.9% (15384; 27986)
+6280591: mip =   3.620000000e+02 >=   3.010000000e+02  16.9% (15486; 28121)
+6308113: mip =   3.620000000e+02 >=   3.010000000e+02  16.9% (15557; 28225)
+6334776: mip =   3.620000000e+02 >=   3.010000000e+02  16.9% (15652; 28353)
+6361691: mip =   3.620000000e+02 >=   3.010000000e+02  16.9% (15746; 28499)
Time used: 1201.1 secs.  Memory used: 160.7 Mb.
+6389750: mip =   3.620000000e+02 >=   3.010000000e+02  16.9% (15786; 28600)
+6418356: mip =   3.620000000e+02 >=   3.010000000e+02  16.9% (15838; 28712)
+6447038: mip =   3.620000000e+02 >=   3.010000000e+02  16.9% (15921; 28787)
+6474828: mip =   3.620000000e+02 >=   3.010000000e+02  16.9% (16013; 28894)
+6501913: mip =   3.620000000e+02 >=   3.010000000e+02  16.9% (16085; 28955)
+6529809: mip =   3.620000000e+02 >=   3.010000000e+02  16.9% (16147; 29049)
+6558227: mip =   3.620000000e+02 >=   3.010000000e+02  16.9% (16246; 29123)
+6586432: mip =   3.620000000e+02 >=   3.010000000e+02  16.9% (16315; 29224)
+6616188: mip =   3.620000000e+02 >=   3.010000000e+02  16.9% (16368; 29324)
+6644340: mip =   3.620000000e+02 >=   3.010000000e+02  16.9% (16401; 29411)
+6673776: mip =   3.620000000e+02 >=   3.010000000e+02  16.9% (16461; 29512)
+6701256: mip =   3.620000000e+02 >=   3.010000000e+02  16.9% (16552; 29631)
Time used: 1261.2 secs.  Memory used: 171.3 Mb.
+6727604: mip =   3.620000000e+02 >=   3.010000000e+02  16.9% (16631; 29781)
+6755441: mip =   3.620000000e+02 >=   3.010000000e+02  16.9% (16686; 29875)
+6782830: mip =   3.620000000e+02 >=   3.010000000e+02  16.9% (16776; 30017)
+6809785: mip =   3.620000000e+02 >=   3.010000000e+02  16.9% (16854; 30113)
+6836357: mip =   3.620000000e+02 >=   3.010000000e+02  16.9% (16893; 30217)
+6859555: mip =   3.620000000e+02 >=   3.020000000e+02  16.6% (16893; 30344)
+6887002: mip =   3.620000000e+02 >=   3.020000000e+02  16.6% (16878; 30475)
+6913691: mip =   3.620000000e+02 >=   3.020000000e+02  16.6% (16866; 30646)
+6938996: mip =   3.620000000e+02 >=   3.020000000e+02  16.6% (16846; 30806)
+6965145: mip =   3.620000000e+02 >=   3.020000000e+02  16.6% (16815; 30993)
+6991450: mip =   3.620000000e+02 >=   3.020000000e+02  16.6% (16778; 31177)
Time used: 1321.2 secs.  Memory used: 178.6 Mb.
+7017171: mip =   3.620000000e+02 >=   3.020000000e+02  16.6% (16755; 31381)
+7042433: mip =   3.620000000e+02 >=   3.020000000e+02  16.6% (16713; 31597)
+7068321: mip =   3.620000000e+02 >=   3.020000000e+02  16.6% (16694; 31763)
+7093836: mip =   3.620000000e+02 >=   3.020000000e+02  16.6% (16700; 31939)
+7120379: mip =   3.620000000e+02 >=   3.020000000e+02  16.6% (16695; 32118)
+7147877: mip =   3.620000000e+02 >=   3.020000000e+02  16.6% (16705; 32268)
+7174820: mip =   3.620000000e+02 >=   3.020000000e+02  16.6% (16704; 32391)
+7200244: mip =   3.620000000e+02 >=   3.020000000e+02  16.6% (16741; 32553)
+7227206: mip =   3.620000000e+02 >=   3.020000000e+02  16.6% (16703; 32739)
+7252939: mip =   3.620000000e+02 >=   3.020000000e+02  16.6% (16706; 32898)
+7279205: mip =   3.620000000e+02 >=   3.020000000e+02  16.6% (16691; 33088)
+7307387: mip =   3.620000000e+02 >=   3.020000000e+02  16.6% (16752; 33199)
Time used: 1381.3 secs.  Memory used: 183.5 Mb.
+7335852: mip =   3.620000000e+02 >=   3.020000000e+02  16.6% (16820; 33291)
+7361893: mip =   3.620000000e+02 >=   3.020000000e+02  16.6% (16819; 33492)
+7387474: mip =   3.620000000e+02 >=   3.020000000e+02  16.6% (16765; 33709)
+7411855: mip =   3.620000000e+02 >=   3.020000000e+02  16.6% (16782; 33906)
+7437697: mip =   3.620000000e+02 >=   3.020000000e+02  16.6% (16795; 34101)
+7466850: mip =   3.620000000e+02 >=   3.020000000e+02  16.6% (16850; 34218)
+7495702: mip =   3.620000000e+02 >=   3.020000000e+02  16.6% (16937; 34300)
+7523820: mip =   3.620000000e+02 >=   3.020000000e+02  16.6% (16997; 34392)
+7548629: mip =   3.620000000e+02 >=   3.020000000e+02  16.6% (17024; 34557)
+7576303: mip =   3.620000000e+02 >=   3.020000000e+02  16.6% (17096; 34660)
+7605531: mip =   3.620000000e+02 >=   3.020000000e+02  16.6% (17145; 34725)
+7632478: mip =   3.620000000e+02 >=   3.020000000e+02  16.6% (17219; 34860)
Time used: 1441.3 secs.  Memory used: 189.2 Mb.
+7661363: mip =   3.620000000e+02 >=   3.020000000e+02  16.6% (17306; 34933)
+7687356: mip =   3.620000000e+02 >=   3.020000000e+02  16.6% (17372; 35063)
+7715215: mip =   3.620000000e+02 >=   3.020000000e+02  16.6% (17469; 35160)
+7743679: mip =   3.620000000e+02 >=   3.020000000e+02  16.6% (17524; 35229)
+7770895: mip =   3.620000000e+02 >=   3.020000000e+02  16.6% (17584; 35333)
+7796046: mip =   3.620000000e+02 >=   3.020000000e+02  16.6% (17614; 35520)
+7824050: mip =   3.620000000e+02 >=   3.020000000e+02  16.6% (17713; 35622)
+7852421: mip =   3.620000000e+02 >=   3.020000000e+02  16.6% (17780; 35700)
+7879291: mip =   3.620000000e+02 >=   3.020000000e+02  16.6% (17813; 35809)
+7904619: mip =   3.620000000e+02 >=   3.020000000e+02  16.6% (17875; 35953)
+7928849: mip =   3.620000000e+02 >=   3.020000000e+02  16.6% (17921; 36117)
+7956469: mip =   3.620000000e+02 >=   3.020000000e+02  16.6% (18016; 36244)
Time used: 1501.3 secs.  Memory used: 196.0 Mb.
+7986299: mip =   3.620000000e+02 >=   3.020000000e+02  16.6% (18069; 36313)
+8010410: mip =   3.620000000e+02 >=   3.020000000e+02  16.6% (18095; 36494)
+8035899: mip =   3.620000000e+02 >=   3.020000000e+02  16.6% (18184; 36636)
+8062752: mip =   3.620000000e+02 >=   3.020000000e+02  16.6% (18258; 36735)
+8091301: mip =   3.620000000e+02 >=   3.020000000e+02  16.6% (18288; 36873)
+8116283: mip =   3.620000000e+02 >=   3.020000000e+02  16.6% (18356; 37037)
+8142010: mip =   3.620000000e+02 >=   3.020000000e+02  16.6% (18412; 37187)
+8170823: mip =   3.620000000e+02 >=   3.020000000e+02  16.6% (18484; 37255)
+8195145: mip =   3.620000000e+02 >=   3.020000000e+02  16.6% (18543; 37399)
+8223626: mip =   3.620000000e+02 >=   3.020000000e+02  16.6% (18606; 37456)
+8249037: mip =   3.620000000e+02 >=   3.020000000e+02  16.6% (18706; 37577)
+8276746: mip =   3.620000000e+02 >=   3.020000000e+02  16.6% (18761; 37680)
Time used: 1561.3 secs.  Memory used: 202.7 Mb.
+8303821: mip =   3.620000000e+02 >=   3.020000000e+02  16.6% (18799; 37812)
+8330265: mip =   3.620000000e+02 >=   3.020000000e+02  16.6% (18846; 37868)
+8359043: mip =   3.620000000e+02 >=   3.020000000e+02  16.6% (18899; 37943)
+8386629: mip =   3.620000000e+02 >=   3.020000000e+02  16.6% (18981; 38006)
+8416166: mip =   3.620000000e+02 >=   3.020000000e+02  16.6% (19053; 38073)
+8440501: mip =   3.620000000e+02 >=   3.030000000e+02  16.3% (19057; 38269)
+8465869: mip =   3.620000000e+02 >=   3.030000000e+02  16.3% (19045; 38443)
+8493536: mip =   3.620000000e+02 >=   3.030000000e+02  16.3% (19039; 38527)
+8520336: mip =   3.620000000e+02 >=   3.030000000e+02  16.3% (19005; 38670)
+8549073: mip =   3.620000000e+02 >=   3.030000000e+02  16.3% (18989; 38771)
+8576584: mip =   3.620000000e+02 >=   3.030000000e+02  16.3% (18986; 38856)
+8602981: mip =   3.620000000e+02 >=   3.030000000e+02  16.3% (18952; 39021)
Time used: 1621.3 secs.  Memory used: 207.2 Mb.
+8626934: mip =   3.620000000e+02 >=   3.030000000e+02  16.3% (18865; 39259)
+8651627: mip =   3.620000000e+02 >=   3.030000000e+02  16.3% (18887; 39331)
+8676040: mip =   3.620000000e+02 >=   3.030000000e+02  16.3% (18921; 39429)
+8701090: mip =   3.620000000e+02 >=   3.030000000e+02  16.3% (18943; 39491)
+8729581: mip =   3.620000000e+02 >=   3.030000000e+02  16.3% (19037; 39581)
+8757423: mip =   3.620000000e+02 >=   3.030000000e+02  16.3% (19082; 39662)
+8783722: mip =   3.620000000e+02 >=   3.040000000e+02  16.0% (19040; 39897)
+8809763: mip =   3.620000000e+02 >=   3.040000000e+02  16.0% (18986; 40145)
+8835394: mip =   3.620000000e+02 >=   3.040000000e+02  16.0% (18909; 40357)
+8860606: mip =   3.620000000e+02 >=   3.040000000e+02  16.0% (18829; 40581)
+8885362: mip =   3.620000000e+02 >=   3.040000000e+02  16.0% (18745; 40805)
+8910672: mip =   3.620000000e+02 >=   3.040000000e+02  16.0% (18723; 40949)
Time used: 1681.3 secs.  Memory used: 210.2 Mb.
+8935815: mip =   3.620000000e+02 >=   3.040000000e+02  16.0% (18738; 41028)
+8959460: mip =   3.620000000e+02 >=   3.050000000e+02  15.7% (18658; 41253)
+8984238: mip =   3.620000000e+02 >=   3.050000000e+02  15.7% (18602; 41475)
+9009892: mip =   3.620000000e+02 >=   3.050000000e+02  15.7% (18560; 41645)
+9036186: mip =   3.620000000e+02 >=   3.050000000e+02  15.7% (18580; 41729)
+9060801: mip =   3.620000000e+02 >=   3.050000000e+02  15.7% (18581; 41850)
+9084859: mip =   3.620000000e+02 >=   3.050000000e+02  15.7% (18596; 41951)
+9107352: mip =   3.620000000e+02 >=   3.060000000e+02  15.5% (18585; 42068)
+9130788: mip =   3.620000000e+02 >=   3.060000000e+02  15.5% (18522; 42464)
+9157377: mip =   3.620000000e+02 >=   3.060000000e+02  15.5% (18580; 42625)
+9182434: mip =   3.620000000e+02 >=   3.060000000e+02  15.5% (18587; 42808)
+9203178: mip =   3.620000000e+02 >=   3.070000000e+02  15.2% (18546; 43048)
Time used: 1741.3 secs.  Memory used: 213.4 Mb.
+9227449: mip =   3.620000000e+02 >=   3.070000000e+02  15.2% (18587; 43239)
+9250653: mip =   3.620000000e+02 >=   3.080000000e+02  14.9% (18571; 43396)
+9275490: mip =   3.620000000e+02 >=   3.080000000e+02  14.9% (18485; 43638)
+9298386: mip =   3.620000000e+02 >=   3.080000000e+02  14.9% (18463; 43873)
+9320050: mip =   3.620000000e+02 >=   3.080000000e+02  14.9% (18495; 44018)
+9344967: mip =   3.620000000e+02 >=   3.080000000e+02  14.9% (18550; 44151)
+9371033: mip =   3.620000000e+02 >=   3.080000000e+02  14.9% (18594; 44272)
+9396837: mip =   3.620000000e+02 >=   3.080000000e+02  14.9% (18670; 44380)
+9419963: mip =   3.620000000e+02 >=   3.080000000e+02  14.9% (18775; 44510)
+9445696: mip =   3.620000000e+02 >=   3.080000000e+02  14.9% (18859; 44639)
+9470771: mip =   3.620000000e+02 >=   3.080000000e+02  14.9% (18917; 44758)
